
Gurobi 10.0.1 (win64) logging started Thu Oct  5 12:31:50 2023

Set parameter LogFile to value "./results//log/BA_10_makespan_heurFalse.log"
Gurobi Optimizer version 10.0.1 build v10.0.1rc0 (win64)

CPU model: AMD Ryzen 7 3700X 8-Core Processor, instruction set [SSE2|AVX|AVX2]
Thread count: 8 physical cores, 16 logical processors, using up to 16 threads

Optimize a model with 207 rows, 193 columns and 773 nonzeros
Model fingerprint: 0xab93e212
Variable types: 0 continuous, 193 integer (168 binary)
Coefficient statistics:
  Matrix range     [1e+00, 1e+07]
  Objective range  [1e+00, 1e+00]
  Bounds range     [1e+00, 1e+00]
  RHS range        [1e+00, 3e+07]
Found heuristic solution: objective 87.0000000
Presolve removed 43 rows and 114 columns
Presolve time: 0.00s
Presolved: 164 rows, 79 columns, 692 nonzeros
Variable types: 0 continuous, 79 integer (55 binary)

Root relaxation: objective 3.100000e+01, 24 iterations, 0.00 seconds (0.00 work units)

    Nodes    |    Current Node    |     Objective Bounds      |     Work
 Expl Unexpl |  Obj  Depth IntInf | Incumbent    BestBd   Gap | It/Node Time

     0     0   31.00000    0    1   87.00000   31.00000  64.4%     -    0s
H    0     0                      86.0000000   31.00000  64.0%     -    0s
H    0     0                      79.0000000   31.00000  60.8%     -    0s
H    0     0                      71.0000000   31.00000  56.3%     -    0s
     0     0   32.00000    0    7   71.00000   32.00000  54.9%     -    0s
     0     0   32.00000    0   20   71.00000   32.00000  54.9%     -    0s
     0     0   32.61905    0   14   71.00000   32.61905  54.1%     -    0s
     0     0   33.06250    0    9   71.00000   33.06250  53.4%     -    0s
     0     0   33.87132    0   21   71.00000   33.87132  52.3%     -    0s
     0     0   33.87837    0   27   71.00000   33.87837  52.3%     -    0s
     0     0   33.87837    0   28   71.00000   33.87837  52.3%     -    0s
     0     0   34.14394    0   21   71.00000   34.14394  51.9%     -    0s
     0     0   34.16667    0   23   71.00000   34.16667  51.9%     -    0s
     0     0   34.16667    0   25   71.00000   34.16667  51.9%     -    0s
     0     0   34.16667    0   10   71.00000   34.16667  51.9%     -    0s
     0     0   34.16667    0   23   71.00000   34.16667  51.9%     -    0s
     0     0   34.16667    0    9   71.00000   34.16667  51.9%     -    0s
H    0     0                      70.0000000   34.16667  51.2%     -    0s
     0     0   34.16667    0   20   70.00000   34.16667  51.2%     -    0s
     0     0   34.16667    0    8   70.00000   34.16667  51.2%     -    0s
     0     0   34.16667    0   13   70.00000   34.16667  51.2%     -    0s
     0     0   34.16667    0   18   70.00000   34.16667  51.2%     -    0s
     0     0   34.16667    0    7   70.00000   34.16667  51.2%     -    0s
     0     0   34.16667    0   16   70.00000   34.16667  51.2%     -    0s
     0     0   34.16667    0    9   70.00000   34.16667  51.2%     -    0s
     0     2   34.16667    0    9   70.00000   34.16667  51.2%     -    0s
H  109    96                      67.0000000   36.39346  45.7%   7.7    0s
H  190   126                      65.0000000   36.79712  43.4%   6.7    0s

Cutting planes:
  Learned: 13

Explored 16944 nodes (23488 simplex iterations) in 0.50 seconds (0.23 work units)
Thread count was 16 (of 16 available processors)

Solution count 7: 65 67 70 ... 87

Optimal solution found (tolerance 1.00e-04)
Best objective 6.500000000000e+01, best bound 6.500000000000e+01, gap 0.0000%
Warning: constraint name "precedence between 0,0 to 0,2 if x_[0,0,0,2,3]=0, i.e. 0,2 before 0,0" has a space
Warning: constraint name "precedence between 0,0 to 0,2 if x_[0,0,0,2,3]=0, i.e. 0,2 before 0,0" has a space
Warning: default constraint names used to write mps file
